c colouring generated by benchmark framework
p edge 23 71
v 1 3
v 2 0
v 3 4
v 4 4
v 5 3
v 6 1
v 7 0
v 8 1
v 9 0
v 10 1
v 11 3
v 12 1
v 13 0
v 14 4
v 15 4
v 16 3
v 17 1
v 18 0
v 19 1
v 20 4
v 21 1
v 22 3
v 23 2
